=obj=                -457.18614
x_B0_t2              0
x_B0_t3              0
x_B0_t4              0
x_B0_t5              1
x_B1_t3              0
x_B1_t4              0
x_B1_t5              1
x_B2_t3              0
x_B2_t4              0
x_B2_t5              0
x_B3_t3              0
x_B3_t4              0
x_B3_t5              0
x_B4_t2              0
x_B4_t3              0
x_B4_t4              1
x_B4_t5              1
x_B5_t2              0
x_B5_t3              0
x_B5_t4              0
x_B5_t5              1
x_B6_t2              0
x_B6_t3              0
x_B6_t4              0
x_B6_t5              0
x_B7_t3              0
x_B7_t4              0
x_B7_t5              0
x_B8_t3              0
x_B8_t4              0
x_B8_t5              1
x_B9_t3              0
x_B9_t4              0
x_B9_t5              0
x_B10_t3             0
x_B10_t4             0
x_B10_t5             0
x_B11_t2             0
x_B11_t3             0
x_B11_t4             0
x_B11_t5             1
x_B12_t3             0
x_B12_t4             0
x_B12_t5             1
x_B13_t3             0
x_B13_t4             0
x_B13_t5             0
x_B14_t4             0
x_B14_t5             1
x_B15_t4             0
x_B15_t5             1
x_B16_t3             0
x_B16_t4             1
x_B16_t5             1
x_B17_t3             0
x_B17_t4             1
x_B17_t5             1
x_B18_t3             0
x_B18_t4             0
x_B18_t5             1
x_B19_t3             0
x_B19_t4             0
x_B19_t5             1
x_B20_t3             0
x_B20_t4             1
x_B20_t5             1
x_B21_t4             1
x_B21_t5             1
x_B22_t3             0
x_B22_t4             0
x_B22_t5             0
x_B23_t3             1
x_B23_t4             1
x_B23_t5             1
x_B24_t2             0
x_B24_t3             0
x_B24_t4             0
x_B24_t5             0
x_B25_t3             0
x_B25_t4             0
x_B25_t5             1
x_B26_t3             0
x_B26_t4             1
x_B26_t5             1
x_B27_t3             0
x_B27_t4             1
x_B27_t5             1
x_B28_t3             0
x_B28_t4             0
x_B28_t5             0
x_B29_t3             0
x_B29_t4             0
x_B29_t5             0
x_B30_t2             0
x_B30_t3             1
x_B30_t4             1
x_B30_t5             1
x_B31_t2             0
x_B31_t3             0
x_B31_t4             1
x_B31_t5             1
x_B32_t3             0
x_B32_t4             1
x_B32_t5             1
x_B33_t3             0
x_B33_t4             0
x_B33_t5             1
x_B34_t2             0
x_B34_t3             0
x_B34_t4             0
x_B34_t5             0
x_B35_t2             0
x_B35_t3             0
x_B35_t4             0
x_B35_t5             1
x_B36_t1             0
x_B36_t2             0
x_B36_t3             0
x_B36_t4             0
x_B36_t5             1
x_B37_t1             0
x_B37_t2             0
x_B37_t3             0
x_B37_t4             0
x_B37_t5             1
x_B38_t2             0
x_B38_t3             0
x_B38_t4             1
x_B38_t5             1
x_B39_t2             0
x_B39_t3             0
x_B39_t4             1
x_B39_t5             1
x_B40_t1             0
x_B40_t2             0
x_B40_t3             0
x_B40_t4             1
x_B40_t5             1
x_B41_t1             0
x_B41_t2             0
x_B41_t3             0
x_B41_t4             1
x_B41_t5             1
x_B42_t1             0
x_B42_t2             0
x_B42_t3             0
x_B42_t4             0
x_B42_t5             1
x_B43_t2             0
x_B43_t3             0
x_B43_t4             0
x_B43_t5             1
x_B44_t2             0
x_B44_t3             0
x_B44_t4             0
x_B44_t5             1
x_B45_t2             0
x_B45_t3             0
x_B45_t4             1
x_B45_t5             1
x_B46_t2             0
x_B46_t3             0
x_B46_t4             1
x_B46_t5             1
x_B47_t1             0
x_B47_t2             0
x_B47_t3             0
x_B47_t4             1
x_B47_t5             1
x_B48_t2             0
x_B48_t3             0
x_B48_t4             0
x_B48_t5             1
x_B49_t2             0
x_B49_t3             0
x_B49_t4             1
x_B49_t5             1
x_B50_t3             0
x_B50_t4             1
x_B50_t5             1
x_B51_t3             0
x_B51_t4             1
x_B51_t5             1
x_B52_t2             0
x_B52_t3             1
x_B52_t4             1
x_B52_t5             1
x_B53_t2             0
x_B53_t3             1
x_B53_t4             1
x_B53_t5             1
x_B54_t2             0
x_B54_t3             0
x_B54_t4             0
x_B54_t5             1
x_B55_t2             0
x_B55_t3             0
x_B55_t4             1
x_B55_t5             1
x_B56_t3             0
x_B56_t4             1
x_B56_t5             1
x_B57_t3             0
x_B57_t4             1
x_B57_t5             1
x_B58_t2             0
x_B58_t3             1
x_B58_t4             1
x_B58_t5             1
x_B59_t2             0
x_B59_t3             1
x_B59_t4             1
x_B59_t5             1
x_B60_t1             0
x_B60_t2             0
x_B60_t3             1
x_B60_t4             1
x_B60_t5             1
x_B61_t2             0
x_B61_t3             1
x_B61_t4             1
x_B61_t5             1
x_B62_t2             0
x_B62_t3             0
x_B62_t4             1
x_B62_t5             1
x_B63_t2             0
x_B63_t3             0
x_B63_t4             1
x_B63_t5             1
x_B64_t2             0
x_B64_t3             1
x_B64_t4             1
x_B64_t5             1
x_B65_t1             0
x_B65_t2             0
x_B65_t3             1
x_B65_t4             1
x_B65_t5             1
x_B66_t1             0
x_B66_t2             0
x_B66_t3             1
x_B66_t4             1
x_B66_t5             1
x_B67_t1             0
x_B67_t2             0
x_B67_t3             1
x_B67_t4             1
x_B67_t5             1
x_B68_t2             0
x_B68_t3             0
x_B68_t4             1
x_B68_t5             1
x_B69_t2             0
x_B69_t3             0
x_B69_t4             1
x_B69_t5             1
x_B70_t1             0
x_B70_t2             0
x_B70_t3             1
x_B70_t4             1
x_B70_t5             1
x_B71_t1             0
x_B71_t2             0
x_B71_t3             0
x_B71_t4             0
x_B71_t5             1
x_B72_t0             0
x_B72_t1             0
x_B72_t2             0
x_B72_t3             0
x_B72_t4             0
x_B72_t5             1
x_B73_t1             0
x_B73_t2             0
x_B73_t3             0
x_B73_t4             1
x_B73_t5             1
x_B74_t1             0
x_B74_t2             0
x_B74_t3             0
x_B74_t4             1
x_B74_t5             1
x_B75_t1             0
x_B75_t2             0
x_B75_t3             0
x_B75_t4             1
x_B75_t5             1
x_B76_t1             0
x_B76_t2             0
x_B76_t3             0
x_B76_t4             1
x_B76_t5             1
x_B77_t0             0
x_B77_t1             1
x_B77_t2             1
x_B77_t3             1
x_B77_t4             1
x_B77_t5             1
x_B78_t1             0
x_B78_t2             0
x_B78_t3             0
x_B78_t4             1
x_B78_t5             1
x_B79_t1             0
x_B79_t2             0
x_B79_t3             0
x_B79_t4             1
x_B79_t5             1
x_B80_t1             0
x_B80_t2             0
x_B80_t3             0
x_B80_t4             1
x_B80_t5             1
x_B81_t1             0
x_B81_t2             0
x_B81_t3             1
x_B81_t4             1
x_B81_t5             1
x_B82_t1             0
x_B82_t2             0
x_B82_t3             1
x_B82_t4             1
x_B82_t5             1
x_B83_t1             1
x_B83_t2             1
x_B83_t3             1
x_B83_t4             1
x_B83_t5             1
x_B84_t1             0
x_B84_t2             0
x_B84_t3             0
x_B84_t4             1
x_B84_t5             1
x_B85_t1             0
x_B85_t2             0
x_B85_t3             0
x_B85_t4             1
x_B85_t5             1
x_B86_t1             0
x_B86_t2             0
x_B86_t3             0
x_B86_t4             1
x_B86_t5             1
x_B87_t2             0
x_B87_t3             1
x_B87_t4             1
x_B87_t5             1
x_B88_t1             0
x_B88_t2             1
x_B88_t3             1
x_B88_t4             1
x_B88_t5             1
x_B89_t1             0
x_B89_t2             0
x_B89_t3             1
x_B89_t4             1
x_B89_t5             1
x_B90_t1             0
x_B90_t2             0
x_B90_t3             1
x_B90_t4             1
x_B90_t5             1
x_B91_t1             0
x_B91_t2             0
x_B91_t3             1
x_B91_t4             1
x_B91_t5             1
x_B92_t2             0
x_B92_t3             1
x_B92_t4             1
x_B92_t5             1
x_B93_t1             0
x_B93_t2             0
x_B93_t3             1
x_B93_t4             1
x_B93_t5             1
x_B94_t1             0
x_B94_t2             0
x_B94_t3             1
x_B94_t4             1
x_B94_t5             1
x_B95_t1             0
x_B95_t2             0
x_B95_t3             1
x_B95_t4             1
x_B95_t5             1
x_B96_t1             0
x_B96_t2             0
x_B96_t3             1
x_B96_t4             1
x_B96_t5             1
x_B97_t1             0
x_B97_t2             0
x_B97_t3             1
x_B97_t4             1
x_B97_t5             1
x_B98_t1             0
x_B98_t2             1
x_B98_t3             1
x_B98_t4             1
x_B98_t5             1
x_B99_t1             0
x_B99_t2             1
x_B99_t3             1
x_B99_t4             1
x_B99_t5             1
x_B100_t1            0
x_B100_t2            1
x_B100_t3            1
x_B100_t4            1
x_B100_t5            1
x_B101_t1            0
x_B101_t2            0
x_B101_t3            1
x_B101_t4            1
x_B101_t5            1
x_B102_t0            0
x_B102_t1            0
x_B102_t2            1
x_B102_t3            1
x_B102_t4            1
x_B102_t5            1
x_B103_t1            0
x_B103_t2            0
x_B103_t3            1
x_B103_t4            1
x_B103_t5            1
x_B104_t1            0
x_B104_t2            1
x_B104_t3            1
x_B104_t4            1
x_B104_t5            1
x_B105_t1            0
x_B105_t2            1
x_B105_t3            1
x_B105_t4            1
x_B105_t5            1
x_B106_t1            0
x_B106_t2            0
x_B106_t3            1
x_B106_t4            1
x_B106_t5            1
x_B107_t0            0
x_B107_t1            0
x_B107_t2            1
x_B107_t3            1
x_B107_t4            1
x_B107_t5            1
x_B108_t0            0
x_B108_t1            0
x_B108_t2            0
x_B108_t3            0
x_B108_t4            1
x_B108_t5            1
x_B109_t0            0
x_B109_t1            0
x_B109_t2            0
x_B109_t3            1
x_B109_t4            1
x_B109_t5            1
x_B110_t0            0
x_B110_t1            0
x_B110_t2            0
x_B110_t3            1
x_B110_t4            1
x_B110_t5            1
x_B111_t0            0
x_B111_t1            0
x_B111_t2            0
x_B111_t3            1
x_B111_t4            1
x_B111_t5            1
x_B112_t0            1
x_B112_t1            1
x_B112_t2            1
x_B112_t3            1
x_B112_t4            1
x_B112_t5            1
x_B113_t0            0
x_B113_t1            1
x_B113_t2            1
x_B113_t3            1
x_B113_t4            1
x_B113_t5            1
x_B114_t0            0
x_B114_t1            0
x_B114_t2            0
x_B114_t3            0
x_B114_t4            1
x_B114_t5            1
x_B115_t0            0
x_B115_t1            0
x_B115_t2            0
x_B115_t3            0
x_B115_t4            1
x_B115_t5            1
x_B116_t0            0
x_B116_t1            0
x_B116_t2            0
x_B116_t3            1
x_B116_t4            1
x_B116_t5            1
x_B117_t0            0
x_B117_t1            1
x_B117_t2            1
x_B117_t3            1
x_B117_t4            1
x_B117_t5            1
x_B118_t0            0
x_B118_t1            1
x_B118_t2            1
x_B118_t3            1
x_B118_t4            1
x_B118_t5            1
x_B119_t0            1
x_B119_t1            1
x_B119_t2            1
x_B119_t3            1
x_B119_t4            1
x_B119_t5            1
x_B120_t0            0
x_B120_t1            0
x_B120_t2            0
x_B120_t3            1
x_B120_t4            1
x_B120_t5            1
x_B121_t0            0
x_B121_t1            0
x_B121_t2            0
x_B121_t3            1
x_B121_t4            1
x_B121_t5            1
x_B122_t0            0
x_B122_t1            0
x_B122_t2            1
x_B122_t3            1
x_B122_t4            1
x_B122_t5            1
x_B123_t0            0
x_B123_t1            1
x_B123_t2            1
x_B123_t3            1
x_B123_t4            1
x_B123_t5            1
x_B124_t0            0
x_B124_t1            1
x_B124_t2            1
x_B124_t3            1
x_B124_t4            1
x_B124_t5            1
x_B125_t0            1
x_B125_t1            1
x_B125_t2            1
x_B125_t3            1
x_B125_t4            1
x_B125_t5            1
x_B126_t0            0
x_B126_t1            0
x_B126_t2            1
x_B126_t3            1
x_B126_t4            1
x_B126_t5            1
x_B127_t0            0
x_B127_t1            0
x_B127_t2            1
x_B127_t3            1
x_B127_t4            1
x_B127_t5            1
x_B128_t0            0
x_B128_t1            0
x_B128_t2            1
x_B128_t3            1
x_B128_t4            1
x_B128_t5            1
x_B129_t1            0
x_B129_t2            1
x_B129_t3            1
x_B129_t4            1
x_B129_t5            1
x_B130_t0            0
x_B130_t1            0
x_B130_t2            1
x_B130_t3            1
x_B130_t4            1
x_B130_t5            1
x_B131_t0            0
x_B131_t1            0
x_B131_t2            1
x_B131_t3            1
x_B131_t4            1
x_B131_t5            1
x_B132_t0            0
x_B132_t1            0
x_B132_t2            1
x_B132_t3            1
x_B132_t4            1
x_B132_t5            1
x_B133_t0            0
x_B133_t1            0
x_B133_t2            1
x_B133_t3            1
x_B133_t4            1
x_B133_t5            1
x_B134_t0            0
x_B134_t1            0
x_B134_t2            1
x_B134_t3            1
x_B134_t4            1
x_B134_t5            1
x_B135_t0            0
x_B135_t1            0
x_B135_t2            1
x_B135_t3            1
x_B135_t4            1
x_B135_t5            1
x_B136_t0            0
x_B136_t1            0
x_B136_t2            1
x_B136_t3            1
x_B136_t4            1
x_B136_t5            1
x_B137_t0            0
x_B137_t1            0
x_B137_t2            1
x_B137_t3            1
x_B137_t4            1
x_B137_t5            1
x_B138_t0            0
x_B138_t1            0
x_B138_t2            1
x_B138_t3            1
x_B138_t4            1
x_B138_t5            1
x_B139_t0            0
x_B139_t1            0
x_B139_t2            1
x_B139_t3            1
x_B139_t4            1
x_B139_t5            1
x_B140_t0            0
x_B140_t1            0
x_B140_t2            1
x_B140_t3            1
x_B140_t4            1
x_B140_t5            1
x_B141_t0            0
x_B141_t1            0
x_B141_t2            1
x_B141_t3            1
x_B141_t4            1
x_B141_t5            1
x_B142_t0            0
x_B142_t1            0
x_B142_t2            1
x_B142_t3            1
x_B142_t4            1
x_B142_t5            1
x_B143_t0            0
x_B143_t1            0
x_B143_t2            1
x_B143_t3            1
x_B143_t4            1
x_B143_t5            1
x_B144_t0            0
x_B144_t1            0
x_B144_t2            0
x_B144_t3            1
x_B144_t4            1
x_B144_t5            1
x_B145_t0            1
x_B145_t1            1
x_B145_t2            1
x_B145_t3            1
x_B145_t4            1
x_B145_t5            1
x_B146_t0            0
x_B146_t1            1
x_B146_t2            1
x_B146_t3            1
x_B146_t4            1
x_B146_t5            1
x_B147_t0            1
x_B147_t1            1
x_B147_t2            1
x_B147_t3            1
x_B147_t4            1
x_B147_t5            1
x_B148_t0            1
x_B148_t1            1
x_B148_t2            1
x_B148_t3            1
x_B148_t4            1
x_B148_t5            1
x_B149_t0            1
x_B149_t1            1
x_B149_t2            1
x_B149_t3            1
x_B149_t4            1
x_B149_t5            1
x_B150_t0            0
x_B150_t1            0
x_B150_t2            0
x_B150_t3            1
x_B150_t4            1
x_B150_t5            1
x_B151_t0            0
x_B151_t1            1
x_B151_t2            1
x_B151_t3            1
x_B151_t4            1
x_B151_t5            1
x_B152_t0            0
x_B152_t1            1
x_B152_t2            1
x_B152_t3            1
x_B152_t4            1
x_B152_t5            1
x_B153_t0            1
x_B153_t1            1
x_B153_t2            1
x_B153_t3            1
x_B153_t4            1
x_B153_t5            1
x_B154_t0            1
x_B154_t1            1
x_B154_t2            1
x_B154_t3            1
x_B154_t4            1
x_B154_t5            1
x_B155_t0            1
x_B155_t1            1
x_B155_t2            1
x_B155_t3            1
x_B155_t4            1
x_B155_t5            1
x_B156_t0            0
x_B156_t1            0
x_B156_t2            1
x_B156_t3            1
x_B156_t4            1
x_B156_t5            1
x_B157_t0            0
x_B157_t1            0
x_B157_t2            1
x_B157_t3            1
x_B157_t4            1
x_B157_t5            1
x_B158_t0            0
x_B158_t1            1
x_B158_t2            1
x_B158_t3            1
x_B158_t4            1
x_B158_t5            1
x_B159_t0            0
x_B159_t1            1
x_B159_t2            1
x_B159_t3            1
x_B159_t4            1
x_B159_t5            1
x_B160_t0            1
x_B160_t1            1
x_B160_t2            1
x_B160_t3            1
x_B160_t4            1
x_B160_t5            1
x_B161_t0            1
x_B161_t1            1
x_B161_t2            1
x_B161_t3            1
x_B161_t4            1
x_B161_t5            1
x_B162_t0            0
x_B162_t1            1
x_B162_t2            1
x_B162_t3            1
x_B162_t4            1
x_B162_t5            1
x_B163_t0            0
x_B163_t1            0
x_B163_t2            1
x_B163_t3            1
x_B163_t4            1
x_B163_t5            1
x_B164_t0            0
x_B164_t1            1
x_B164_t2            1
x_B164_t3            1
x_B164_t4            1
x_B164_t5            1
x_B165_t0            0
x_B165_t1            1
x_B165_t2            1
x_B165_t3            1
x_B165_t4            1
x_B165_t5            1
x_B166_t0            1
x_B166_t1            1
x_B166_t2            1
x_B166_t3            1
x_B166_t4            1
x_B166_t5            1
x_B167_t0            1
x_B167_t1            1
x_B167_t2            1
x_B167_t3            1
x_B167_t4            1
x_B167_t5            1
x_B168_t0            0
x_B168_t1            0
x_B168_t2            1
x_B168_t3            1
x_B168_t4            1
x_B168_t5            1
x_B169_t0            0
x_B169_t1            0
x_B169_t2            1
x_B169_t3            1
x_B169_t4            1
x_B169_t5            1
x_B170_t0            0
x_B170_t1            1
x_B170_t2            1
x_B170_t3            1
x_B170_t4            1
x_B170_t5            1
x_B171_t0            0
x_B171_t1            0
x_B171_t2            1
x_B171_t3            1
x_B171_t4            1
x_B171_t5            1
x_B172_t0            0
x_B172_t1            1
x_B172_t2            1
x_B172_t3            1
x_B172_t4            1
x_B172_t5            1
x_B173_t0            0
x_B173_t1            0
x_B173_t2            1
x_B173_t3            1
x_B173_t4            1
x_B173_t5            1
x_B174_t0            0
x_B174_t1            1
x_B174_t2            1
x_B174_t3            1
x_B174_t4            1
x_B174_t5            1
x_B175_t0            0
x_B175_t1            0
x_B175_t2            1
x_B175_t3            1
x_B175_t4            1
x_B175_t5            1
x_B176_t0            0
x_B176_t1            1
x_B176_t2            1
x_B176_t3            1
x_B176_t4            1
x_B176_t5            1
x_B177_t0            0
x_B177_t1            1
x_B177_t2            1
x_B177_t3            1
x_B177_t4            1
x_B177_t5            1
x_B178_t0            0
x_B178_t1            0
x_B178_t2            1
x_B178_t3            1
x_B178_t4            1
x_B178_t5            1
x_B179_t0            0
x_B179_t1            0
x_B179_t2            1
x_B179_t3            1
x_B179_t4            1
x_B179_t5            1
x_B180_t0            1
x_B180_t1            1
x_B180_t2            1
x_B180_t3            1
x_B180_t4            1
x_B180_t5            1
x_B181_t0            1
x_B181_t1            1
x_B181_t2            1
x_B181_t3            1
x_B181_t4            1
x_B181_t5            1
x_B182_t0            1
x_B182_t1            1
x_B182_t2            1
x_B182_t3            1
x_B182_t4            1
x_B182_t5            1
x_B183_t0            1
x_B183_t1            1
x_B183_t2            1
x_B183_t3            1
x_B183_t4            1
x_B183_t5            1
x_B184_t0            1
x_B184_t1            1
x_B184_t2            1
x_B184_t3            1
x_B184_t4            1
x_B184_t5            1
x_B185_t0            1
x_B185_t1            1
x_B185_t2            1
x_B185_t3            1
x_B185_t4            1
x_B185_t5            1
x_B186_t0            1
x_B186_t1            1
x_B186_t2            1
x_B186_t3            1
x_B186_t4            1
x_B186_t5            1
x_B187_t0            1
x_B187_t1            1
x_B187_t2            1
x_B187_t3            1
x_B187_t4            1
x_B187_t5            1
x_B188_t0            1
x_B188_t1            1
x_B188_t2            1
x_B188_t3            1
x_B188_t4            1
x_B188_t5            1
x_B189_t0            1
x_B189_t1            1
x_B189_t2            1
x_B189_t3            1
x_B189_t4            1
x_B189_t5            1
x_B190_t0            1
x_B190_t1            1
x_B190_t2            1
x_B190_t3            1
x_B190_t4            1
x_B190_t5            1
x_B191_t0            1
x_B191_t1            1
x_B191_t2            1
x_B191_t3            1
x_B191_t4            1
x_B191_t5            1
x_B192_t0            1
x_B192_t1            1
x_B192_t2            1
x_B192_t3            1
x_B192_t4            1
x_B192_t5            1
x_B193_t0            0
x_B193_t1            1
x_B193_t2            1
x_B193_t3            1
x_B193_t4            1
x_B193_t5            1
x_B194_t0            1
x_B194_t1            1
x_B194_t2            1
x_B194_t3            1
x_B194_t4            1
x_B194_t5            1
x_B195_t0            1
x_B195_t1            1
x_B195_t2            1
x_B195_t3            1
x_B195_t4            1
x_B195_t5            1
x_B196_t0            1
x_B196_t1            1
x_B196_t2            1
x_B196_t3            1
x_B196_t4            1
x_B196_t5            1
x_B197_t0            1
x_B197_t1            1
x_B197_t2            1
x_B197_t3            1
x_B197_t4            1
x_B197_t5            1
x_B198_t0            0
x_B198_t1            1
x_B198_t2            1
x_B198_t3            1
x_B198_t4            1
x_B198_t5            1
x_B199_t0            0
x_B199_t1            1
x_B199_t2            1
x_B199_t3            1
x_B199_t4            1
x_B199_t5            1
x_B200_t0            0
x_B200_t1            1
x_B200_t2            1
x_B200_t3            1
x_B200_t4            1
x_B200_t5            1
x_B201_t0            1
x_B201_t1            1
x_B201_t2            1
x_B201_t3            1
x_B201_t4            1
x_B201_t5            1
x_B202_t0            1
x_B202_t1            1
x_B202_t2            1
x_B202_t3            1
x_B202_t4            1
x_B202_t5            1
x_B203_t0            1
x_B203_t1            1
x_B203_t2            1
x_B203_t3            1
x_B203_t4            1
x_B203_t5            1
x_B204_t0            0
x_B204_t1            1
x_B204_t2            1
x_B204_t3            1
x_B204_t4            1
x_B204_t5            1
x_B205_t0            1
x_B205_t1            1
x_B205_t2            1
x_B205_t3            1
x_B205_t4            1
x_B205_t5            1
x_B206_t0            0
x_B206_t1            1
x_B206_t2            1
x_B206_t3            1
x_B206_t4            1
x_B206_t5            1
x_B207_t0            1
x_B207_t1            1
x_B207_t2            1
x_B207_t3            1
x_B207_t4            1
x_B207_t5            1
x_B208_t0            1
x_B208_t1            1
x_B208_t2            1
x_B208_t3            1
x_B208_t4            1
x_B208_t5            1
x_B209_t0            1
x_B209_t1            1
x_B209_t2            1
x_B209_t3            1
x_B209_t4            1
x_B209_t5            1
x_B210_t0            0
x_B210_t1            1
x_B210_t2            1
x_B210_t3            1
x_B210_t4            1
x_B210_t5            1
x_B211_t0            0
x_B211_t1            1
x_B211_t2            1
x_B211_t3            1
x_B211_t4            1
x_B211_t5            1
x_B212_t0            0
x_B212_t1            1
x_B212_t2            1
x_B212_t3            1
x_B212_t4            1
x_B212_t5            1
x_B213_t0            0
x_B213_t1            1
x_B213_t2            1
x_B213_t3            1
x_B213_t4            1
x_B213_t5            1
x_B214_t0            1
x_B214_t1            1
x_B214_t2            1
x_B214_t3            1
x_B214_t4            1
x_B214_t5            1
x_B215_t0            0
x_B215_t1            1
x_B215_t2            1
x_B215_t3            1
x_B215_t4            1
x_B215_t5            1
